<number of tasks>
45

<cycle time>
62

<task times>
1 9
2 9
3 10
4 10
5 17
6 17
7 13
8 13
9 20
10 20
11 10
12 11
13 6
14 22
15 11
16 19
17 12
18 3
19 7
20 4
21 55
22 14
23 27
24 29
25 26
26 6
27 5
28 24
29 4
30 5
31 7
32 4
33 15
34 3
35 7
36 9
37 4
38 7
39 5
40 4
41 21
42 12
43 6
44 5
45 5

<precedence relations>
1,3
1,7
2,4
2,8
3,5
4,6
5,9
6,10
7,9
7,14
8,10
8,14
9,41
10,41
11,13
12,13
12,37
13,14
13,15
14,17
14,25
14,29
14,30
14,31
14,32
15,16
15,18
15,23
15,24
16,19
17,26
17,27
18,19
19,20
19,33
20,21
21,22
22,28
23,33
24,33
25,26
26,38
27,28
27,33
28,38
29,41
30,41
31,41
32,41
33,34
33,35
33,36
34,38
35,40
36,38
37,43
38,40
39,41
40,41
41,42
42,44
42,45

<setup times forward>
1,2:2
1,3:1
1,4:1
1,6:2
1,7:1
1,8:3
1,10:1
1,11:4
1,12:1
1,15:4
1,16:4
1,18:1
1,20:2
1,21:1
1,22:3
1,23:1
1,24:1
1,37:3
1,39:1
2,1:2
2,3:3
2,4:1
2,5:2
2,7:3
2,8:5
2,9:1
2,11:6
2,12:3
2,13:2
2,15:6
2,16:6
2,18:3
2,19:2
2,21:1
2,22:5
2,23:1
2,24:3
2,37:5
2,39:3
2,43:2
3,2:3
3,4:2
3,5:1
3,6:1
3,8:2
3,11:3
3,13:1
3,14:3
3,15:3
3,16:3
3,17:3
3,19:1
3,20:3
3,21:2
3,22:2
3,23:2
3,25:1
3,26:2
3,27:3
3,28:1
3,29:3
3,31:3
3,32:3
3,33:1
3,34:1
3,35:3
3,36:1
3,37:2
3,38:3
3,40:2
3,43:1
4,1:1
4,3:2
4,5:1
4,6:3
4,7:2
4,8:4
4,11:5
4,12:2
4,13:1
4,14:1
4,15:5
4,16:5
4,17:1
4,18:2
4,19:1
4,20:1
4,22:4
4,24:2
4,25:3
4,26:4
4,27:5
4,28:1
4,29:5
4,30:2
4,31:1
4,32:1
4,33:1
4,34:1
4,35:5
4,36:1
4,37:4
4,38:1
4,39:2
4,40:4
4,43:1
5,2:2
5,4:1
5,6:2
5,7:1
5,8:3
5,9:1
5,10:1
5,11:4
5,12:1
5,14:2
5,15:4
5,16:4
5,17:2
5,18:1
5,20:2
5,21:1
5,22:3
5,23:1
5,24:1
5,25:2
5,26:3
5,27:4
5,29:4
5,30:1
5,31:2
5,32:2
5,35:4
5,37:3
5,38:2
5,39:1
5,40:3
6,1:2
6,3:1
6,5:2
6,7:1
6,8:1
6,9:3
6,10:1
6,11:2
6,12:1
6,13:2
6,14:4
6,15:2
6,16:2
6,17:4
6,18:1
6,19:2
6,20:4
6,21:3
6,22:1
6,23:3
6,24:1
6,26:1
6,27:2
6,28:2
6,29:2
6,30:1
6,31:4
6,32:4
6,33:2
6,34:2
6,35:2
6,36:2
6,37:1
6,38:4
6,39:1
6,40:1
6,43:2
7,2:3
7,4:2
7,5:1
7,6:1
7,8:2
7,9:2
7,11:3
7,13:1
7,14:3
7,15:3
7,16:3
7,19:1
7,20:3
7,21:2
7,22:2
7,23:2
7,37:2
7,43:1
8,1:3
8,3:2
8,4:4
8,5:3
8,6:1
8,7:2
8,9:4
8,10:2
8,11:1
8,12:2
8,13:3
8,14:5
8,15:1
8,16:1
8,18:2
8,19:3
8,20:5
8,21:4
8,23:4
8,24:2
8,39:2
8,43:3
9,2:1
9,6:3
9,8:4
9,10:2
9,11:5
9,12:2
9,13:1
9,14:1
9,15:5
9,16:5
9,17:1
9,18:2
9,19:1
9,20:1
9,22:4
9,24:2
9,25:3
9,26:4
9,27:5
9,28:1
9,29:5
9,30:2
9,31:1
9,32:1
9,33:1
9,34:1
9,35:5
9,36:1
9,37:4
9,38:1
9,39:2
9,40:4
9,41:4
9,43:1
10,1:1
10,5:1
10,9:2
10,11:3
10,13:1
10,14:3
10,15:3
10,16:3
10,17:3
10,19:1
10,20:3
10,21:2
10,22:2
10,23:2
10,25:1
10,26:2
10,27:3
10,28:1
10,29:3
10,31:3
10,32:3
10,33:1
10,34:1
10,35:3
10,36:1
10,37:2
10,38:3
10,40:2
10,41:2
10,43:1
11,1:4
11,2:6
11,3:3
11,4:5
11,5:4
11,6:2
11,7:3
11,8:1
11,9:5
11,10:3
11,12:3
11,13:4
11,37:1
11,39:3
11,43:4
12,1:1
12,2:3
12,4:2
12,5:1
12,6:1
12,8:2
12,9:2
12,11:3
12,13:1
12,37:2
13,2:2
13,3:1
13,4:1
13,6:2
13,7:1
13,8:3
13,9:1
13,10:1
13,14:2
13,15:4
13,37:3
13,39:1
14,3:3
14,4:1
14,5:2
14,6:4
14,9:1
14,10:3
14,15:6
14,16:6
14,18:3
14,19:2
14,21:1
14,22:5
14,23:1
14,24:3
14,25:4
14,29:6
14,30:3
14,37:5
14,39:3
14,43:2
15,1:4
15,2:6
15,3:3
15,4:5
15,5:4
15,6:2
15,7:3
15,8:1
15,9:5
15,10:3
15,14:6
15,17:6
15,18:3
15,23:5
15,24:3
15,25:2
15,26:1
15,30:3
15,31:6
15,32:6
15,37:1
15,39:3
15,43:4
16,1:4
16,2:6
16,3:3
16,4:5
16,5:4
16,6:2
16,7:3
16,8:1
16,9:5
16,10:3
16,14:6
16,17:6
16,18:3
16,19:4
16,23:5
16,24:3
16,25:2
16,26:1
16,30:3
16,31:6
16,32:6
16,37:1
16,39:3
16,43:4
17,3:3
17,4:1
17,5:2
17,6:4
17,9:1
17,10:3
17,15:6
17,16:6
17,18:3
17,19:2
17,21:1
17,22:5
17,23:1
17,24:3
17,25:4
17,26:5
17,27:6
17,29:6
17,30:3
17,37:5
17,39:3
17,43:2
18,1:1
18,2:3
18,4:2
18,5:1
18,6:1
18,8:2
18,9:2
18,14:3
18,16:3
18,17:3
18,19:1
18,23:2
18,25:1
18,26:2
18,27:3
18,29:3
18,31:3
18,32:3
18,37:2
18,43:1
19,2:2
19,3:1
19,4:1
19,6:2
19,7:1
19,8:3
19,9:1
19,10:1
19,14:2
19,17:2
19,20:2
19,23:1
19,24:1
19,25:2
19,26:3
19,27:4
19,29:4
19,30:1
19,31:2
19,32:2
19,37:3
19,39:1
20,1:2
20,3:3
20,4:1
20,5:2
20,6:4
20,7:3
20,8:5
20,9:1
20,10:3
20,21:1
20,23:1
20,24:3
20,25:4
20,26:5
20,27:6
20,29:6
20,30:3
20,33:2
20,34:2
20,35:6
20,36:2
20,37:5
20,39:3
20,43:2
21,1:1
21,2:1
21,3:2
21,5:1
21,6:3
21,7:2
21,8:4
21,10:2
21,14:1
21,17:1
21,22:4
21,24:2
21,25:3
21,26:4
21,27:5
21,29:5
21,30:2
21,31:1
21,32:1
21,33:1
21,34:1
21,35:5
21,36:1
21,37:4
21,39:2
21,43:1
22,1:3
22,2:5
22,3:2
22,4:4
22,5:3
22,6:1
22,7:2
22,9:4
22,10:2
22,14:5
22,17:5
22,23:4
22,24:2
22,25:1
22,27:1
22,28:3
22,29:1
22,30:2
22,31:5
22,32:5
22,33:3
22,34:3
22,35:1
22,36:3
22,39:2
22,43:3
23,1:1
23,2:1
23,3:2
23,5:1
23,6:3
23,7:2
23,8:4
23,10:2
23,14:1
23,16:5
23,17:1
23,18:2
23,19:1
23,20:1
23,22:4
23,24:2
23,25:3
23,26:4
23,27:5
23,28:1
23,29:5
23,30:2
23,31:1
23,32:1
23,33:1
23,37:4
23,39:2
23,43:1
24,1:1
24,2:3
24,4:2
24,5:1
24,6:1
24,8:2
24,9:2
24,14:3
24,16:3
24,17:3
24,19:1
24,20:3
24,21:2
24,22:2
24,23:2
24,25:1
24,26:2
24,27:3
24,28:1
24,29:3
24,31:3
24,32:3
24,33:1
24,37:2
24,43:1
25,3:1
25,4:3
25,5:2
25,9:3
25,10:1
25,15:2
25,16:2
25,17:4
25,18:1
25,19:2
25,20:4
25,21:3
25,22:1
25,23:3
25,24:1
25,26:1
25,27:2
25,28:2
25,29:2
25,30:1
25,31:4
25,32:4
25,33:2
25,34:2
25,35:2
25,36:2
25,37:1
25,39:1
25,43:2
26,3:2
26,4:4
26,5:3
26,6:1
26,9:4
26,10:2
26,15:1
26,16:1
26,18:2
26,19:3
26,20:5
26,21:4
26,23:4
26,24:2
26,27:1
26,28:3
26,29:1
26,30:2
26,31:5
26,32:5
26,33:3
26,34:3
26,35:1
26,36:3
26,38:5
26,39:2
26,43:3
27,3:3
27,4:5
27,5:4
27,6:2
27,9:5
27,10:3
27,18:3
27,19:4
27,20:6
27,21:5
27,22:1
27,23:5
27,24:3
27,25:2
27,26:1
27,28:4
27,30:3
27,31:6
27,32:6
27,33:4
27,37:1
27,39:3
27,43:4
28,3:1
28,4:1
28,6:2
28,9:1
28,10:1
28,23:1
28,24:1
28,25:2
28,26:3
28,29:4
28,30:1
28,31:2
28,32:2
28,35:4
28,37:3
28,38:2
28,39:1
29,3:3
29,4:5
29,5:4
29,6:2
29,9:5
29,10:3
29,17:6
29,18:3
29,19:4
29,20:6
29,21:5
29,22:1
29,23:5
29,24:3
29,25:2
29,26:1
29,28:4
29,30:3
29,31:6
29,32:6
29,33:4
29,34:4
29,36:4
29,37:1
29,38:6
29,39:3
29,40:1
29,41:1
29,43:4
30,4:2
30,5:1
30,6:1
30,9:2
30,15:3
30,16:3
30,17:3
30,19:1
30,20:3
30,21:2
30,22:2
30,23:2
30,25:1
30,26:2
30,27:3
30,28:1
30,29:3
30,31:3
30,32:3
30,33:1
30,34:1
30,35:3
30,36:1
30,37:2
30,38:3
30,40:2
30,41:2
30,43:1
31,3:3
31,4:1
31,5:2
31,6:4
31,9:1
31,10:3
31,15:6
31,16:6
31,18:3
31,19:2
31,21:1
31,22:5
31,23:1
31,24:3
31,25:4
31,26:5
31,27:6
31,28:2
31,29:6
31,30:3
31,33:2
31,34:2
31,35:6
31,36:2
31,37:5
31,39:3
31,40:5
31,41:5
31,43:2
32,3:3
32,4:1
32,5:2
32,6:4
32,9:1
32,10:3
32,15:6
32,16:6
32,18:3
32,19:2
32,21:1
32,22:5
32,23:1
32,24:3
32,25:4
32,26:5
32,27:6
32,28:2
32,29:6
32,30:3
32,33:2
32,34:2
32,35:6
32,36:2
32,37:5
32,39:3
32,40:5
32,41:5
32,43:2
33,3:1
33,4:1
33,6:2
33,9:1
33,10:1
33,20:2
33,21:1
33,22:3
33,25:2
33,26:3
33,29:4
33,30:1
33,31:2
33,32:2
33,35:4
33,37:3
33,39:1
34,3:1
34,4:1
34,6:2
34,9:1
34,10:1
34,20:2
34,21:1
34,22:3
34,25:2
34,26:3
34,29:4
34,30:1
34,31:2
34,32:2
34,35:4
34,37:3
34,38:2
34,39:1
35,3:3
35,4:5
35,5:4
35,6:2
35,9:5
35,10:3
35,20:6
35,21:5
35,22:1
35,25:2
35,26:1
35,28:4
35,30:3
35,31:6
35,32:6
35,34:4
35,36:4
35,37:1
35,38:6
35,39:3
35,40:1
35,43:4
36,3:1
36,4:1
36,6:2
36,9:1
36,10:1
36,20:2
36,21:1
36,22:3
36,25:2
36,26:3
36,29:4
36,30:1
36,31:2
36,32:2
36,35:4
36,37:3
36,38:2
36,39:1
37,1:3
37,2:5
37,3:2
37,4:4
37,5:3
37,6:1
37,7:2
37,9:4
37,10:2
37,11:1
37,13:3
37,14:5
37,15:1
37,16:1
37,17:5
37,18:2
37,19:3
37,20:5
37,21:4
37,23:4
37,24:2
37,25:1
37,27:1
37,28:3
37,29:1
37,30:2
37,31:5
37,32:5
37,33:3
37,34:3
37,35:1
37,36:3
37,38:5
37,39:2
37,42:1
37,43:3
37,44:2
37,45:2
38,3:3
38,4:1
38,5:2
38,6:4
38,9:1
38,10:3
38,29:6
38,30:3
38,35:6
38,37:5
38,39:3
38,40:5
38,43:2
39,1:1
39,2:3
39,4:2
39,5:1
39,6:1
39,8:2
39,9:2
39,11:3
39,13:1
39,14:3
39,15:3
39,16:3
39,17:3
39,19:1
39,20:3
39,21:2
39,22:2
39,23:2
39,25:1
39,26:2
39,27:3
39,28:1
39,29:3
39,31:3
39,32:3
39,33:1
39,34:1
39,35:3
39,36:1
39,37:2
39,38:3
39,40:2
39,41:2
39,43:1
40,3:2
40,4:4
40,5:3
40,6:1
40,9:4
40,10:2
40,29:1
40,30:2
40,31:5
40,32:5
40,39:2
40,43:3
41,42:1
41,43:3
42,37:1
42,43:4
42,44:3
42,45:3
43,2:2
43,3:1
43,4:1
43,6:2
43,7:1
43,8:3
43,9:1
43,10:1
43,11:4
43,14:2
43,15:4
43,16:4
43,17:2
43,18:1
43,20:2
43,21:1
43,22:3
43,23:1
43,24:1
43,25:2
43,26:3
43,27:4
43,29:4
43,30:1
43,31:2
43,32:2
43,35:4
43,38:2
43,39:1
43,40:3
43,41:3
43,42:4
43,44:1
43,45:1
44,37:2
44,43:1
45,37:2
45,43:1

<setup times backward>
1,1:7
1,2:5
1,4:6
1,6:9
1,8:10
1,10:8
1,11:11
1,12:8
1,13:7
1,15:11
1,16:11
1,18:8
1,19:7
1,20:5
1,21:6
1,22:10
1,23:6
1,24:8
1,37:10
1,39:8
1,43:7
2,1:9
2,2:7
2,3:10
2,5:9
2,7:10
2,9:8
2,11:13
2,12:10
2,13:9
2,15:13
2,16:13
2,18:10
2,19:9
2,20:7
2,21:8
2,22:12
2,23:8
2,24:10
2,37:12
2,39:10
2,43:9
3,1:6
3,2:4
3,3:7
3,4:5
3,6:8
3,7:7
3,8:9
3,10:7
3,11:10
3,12:7
3,13:6
3,14:4
3,15:10
3,16:10
3,17:4
3,18:7
3,19:6
3,20:4
3,21:5
3,22:9
3,23:5
3,24:7
3,25:8
3,26:9
3,27:10
3,28:6
3,29:10
3,30:7
3,31:4
3,32:4
3,33:6
3,34:6
3,35:10
3,36:6
3,37:9
3,38:4
3,39:7
3,40:9
3,43:6
4,1:8
4,2:6
4,3:9
4,4:7
4,5:8
4,7:9
4,8:11
4,9:7
4,11:12
4,12:9
4,13:8
4,14:6
4,15:12
4,16:12
4,17:6
4,18:9
4,19:8
4,20:6
4,21:7
4,22:11
4,23:7
4,24:9
4,25:10
4,26:11
4,27:12
4,28:8
4,29:12
4,30:9
4,31:6
4,32:6
4,33:8
4,34:8
4,35:12
4,36:8
4,37:11
4,38:6
4,39:9
4,40:11
4,43:8
5,1:7
5,2:5
5,3:8
5,4:6
5,5:7
5,6:9
5,7:8
5,8:10
5,10:8
5,11:11
5,12:8
5,13:7
5,14:5
5,15:11
5,16:11
5,17:5
5,18:8
5,19:7
5,20:5
5,21:6
5,22:10
5,23:6
5,24:8
5,25:9
5,26:10
5,27:11
5,28:7
5,29:11
5,30:8
5,31:5
5,32:5
5,33:7
5,34:7
5,35:11
5,36:7
5,37:10
5,38:5
5,39:8
5,40:10
5,43:7
6,1:5
6,2:3
6,3:6
6,4:4
6,5:5
6,6:7
6,7:6
6,8:8
6,9:4
6,11:9
6,12:6
6,13:5
6,14:3
6,15:9
6,16:9
6,17:3
6,18:6
6,19:5
6,20:3
6,21:4
6,22:8
6,23:4
6,24:6
6,25:7
6,26:8
6,27:9
6,28:5
6,29:9
6,30:6
6,31:3
6,32:3
6,33:5
6,34:5
6,35:9
6,36:5
6,37:8
6,38:3
6,39:6
6,40:8
6,43:5
7,1:6
7,2:4
7,3:7
7,4:5
7,5:6
7,6:8
7,7:7
7,8:9
7,10:7
7,11:10
7,12:7
7,13:6
7,15:10
7,16:10
7,18:7
7,19:6
7,20:4
7,21:5
7,22:9
7,23:5
7,24:7
7,37:9
7,39:7
7,43:6
8,1:4
8,2:2
8,3:5
8,4:3
8,5:4
8,6:6
8,7:5
8,8:7
8,9:3
8,11:8
8,12:5
8,13:4
8,15:8
8,16:8
8,18:5
8,19:4
8,20:2
8,21:3
8,22:7
8,23:3
8,24:5
8,37:7
8,39:5
8,43:4
9,1:8
9,2:6
9,3:9
9,4:7
9,5:8
9,6:10
9,7:9
9,8:11
9,9:7
9,10:9
9,11:12
9,12:9
9,13:8
9,14:6
9,15:12
9,16:12
9,17:6
9,18:9
9,19:8
9,20:6
9,21:7
9,22:11
9,23:7
9,24:9
9,25:10
9,26:11
9,27:12
9,28:8
9,29:12
9,30:9
9,31:6
9,32:6
9,33:8
9,34:8
9,35:12
9,36:8
9,37:11
9,38:6
9,39:9
9,40:11
9,43:8
10,1:6
10,2:4
10,3:7
10,4:5
10,5:6
10,6:8
10,7:7
10,8:9
10,9:5
10,10:7
10,11:10
10,12:7
10,13:6
10,14:4
10,15:10
10,16:10
10,17:4
10,18:7
10,19:6
10,20:4
10,21:5
10,22:9
10,23:5
10,24:7
10,25:8
10,26:9
10,27:10
10,28:6
10,29:10
10,30:7
10,31:4
10,32:4
10,33:6
10,34:6
10,35:10
10,36:6
10,37:9
10,38:4
10,39:7
10,40:9
10,43:6
11,1:3
11,2:1
11,3:4
11,4:2
11,5:3
11,6:5
11,7:4
11,8:6
11,9:2
11,10:4
11,11:7
11,12:4
11,37:6
11,39:4
11,43:3
12,1:6
12,2:4
12,3:7
12,4:5
12,5:6
12,6:8
12,7:7
12,8:9
12,9:5
12,10:7
12,11:10
12,12:7
12,39:7
13,1:7
13,2:5
13,3:8
13,4:6
13,5:7
13,6:9
13,7:8
13,8:10
13,9:6
13,10:8
13,11:11
13,12:8
13,13:7
13,37:10
13,39:8
13,43:7
14,1:9
14,2:7
14,3:10
14,4:8
14,5:9
14,6:11
14,7:10
14,8:12
14,9:8
14,10:10
14,11:13
14,12:10
14,13:9
14,14:7
14,15:13
14,16:13
14,18:10
14,19:9
14,20:7
14,21:8
14,22:12
14,23:8
14,24:10
14,37:12
14,39:10
14,43:9
15,1:3
15,2:1
15,3:4
15,4:2
15,5:3
15,6:5
15,7:4
15,8:6
15,9:2
15,10:4
15,11:7
15,12:4
15,13:3
15,14:1
15,15:7
15,17:1
15,25:5
15,26:6
15,27:7
15,29:7
15,30:4
15,31:1
15,32:1
15,37:6
15,39:4
15,43:3
16,1:3
16,2:1
16,3:4
16,4:2
16,5:3
16,6:5
16,7:4
16,8:6
16,9:2
16,10:4
16,11:7
16,12:4
16,13:3
16,14:1
16,15:7
16,16:7
16,17:1
16,18:4
16,23:2
16,24:4
16,25:5
16,26:6
16,27:7
16,29:7
16,30:4
16,31:1
16,32:1
16,37:6
16,39:4
16,43:3
17,1:9
17,2:7
17,3:10
17,4:8
17,5:9
17,6:11
17,7:10
17,8:12
17,9:8
17,10:10
17,11:13
17,12:10
17,13:9
17,14:7
17,15:13
17,16:13
17,17:7
17,18:10
17,19:9
17,20:7
17,21:8
17,22:12
17,23:8
17,24:10
17,25:11
17,29:13
17,30:10
17,31:7
17,32:7
17,37:12
17,39:10
17,43:9
18,1:6
18,2:4
18,3:7
18,4:5
18,5:6
18,6:8
18,7:7
18,8:9
18,9:5
18,10:7
18,11:10
18,12:7
18,13:6
18,14:4
18,15:10
18,16:10
18,17:4
18,18:7
18,23:5
18,24:7
18,25:8
18,26:9
18,27:10
18,29:10
18,30:7
18,31:4
18,32:4
18,37:9
18,39:7
18,43:6
19,1:7
19,2:5
19,3:8
19,4:6
19,5:7
19,6:9
19,7:8
19,8:10
19,9:6
19,10:8
19,11:11
19,12:8
19,13:7
19,14:5
19,15:11
19,16:11
19,17:5
19,18:8
19,19:7
19,23:6
19,24:8
19,25:9
19,26:10
19,27:11
19,29:11
19,30:8
19,31:5
19,32:5
19,37:10
19,39:8
19,43:7
20,1:9
20,2:7
20,3:10
20,4:8
20,5:9
20,6:11
20,7:10
20,8:12
20,9:8
20,10:10
20,11:13
20,12:10
20,13:9
20,14:7
20,15:13
20,16:13
20,17:7
20,18:10
20,19:9
20,20:7
20,23:8
20,24:10
20,25:11
20,26:12
20,27:13
20,29:13
20,30:10
20,31:7
20,32:7
20,33:9
20,34:9
20,35:13
20,36:9
20,37:12
20,39:10
20,43:9
21,1:8
21,2:6
21,3:9
21,4:7
21,5:8
21,6:10
21,7:9
21,8:11
21,9:7
21,10:9
21,11:12
21,12:9
21,13:8
21,14:6
21,15:12
21,16:12
21,17:6
21,18:9
21,19:8
21,20:6
21,21:7
21,23:7
21,24:9
21,25:10
21,26:11
21,27:12
21,29:12
21,30:9
21,31:6
21,32:6
21,33:8
21,34:8
21,35:12
21,36:8
21,37:11
21,39:9
21,43:8
22,1:4
22,2:2
22,3:5
22,4:3
22,5:4
22,6:6
22,7:5
22,8:7
22,9:3
22,10:5
22,11:8
22,12:5
22,13:4
22,14:2
22,15:8
22,16:8
22,17:2
22,18:5
22,19:4
22,20:2
22,21:3
22,22:7
22,23:3
22,24:5
22,25:6
22,26:7
22,27:8
22,29:8
22,30:5
22,31:2
22,32:2
22,33:4
22,34:4
22,35:8
22,36:4
22,37:7
22,39:5
22,43:4
23,1:8
23,2:6
23,3:9
23,4:7
23,5:8
23,6:10
23,7:9
23,8:11
23,9:7
23,10:9
23,11:12
23,12:9
23,13:8
23,14:6
23,15:12
23,16:12
23,17:6
23,18:9
23,19:8
23,20:6
23,21:7
23,22:11
23,23:7
23,24:9
23,25:10
23,26:11
23,27:12
23,28:8
23,29:12
23,30:9
23,31:6
23,32:6
23,37:11
23,39:9
23,43:8
24,1:6
24,2:4
24,3:7
24,4:5
24,5:6
24,6:8
24,7:7
24,8:9
24,9:5
24,10:7
24,11:10
24,12:7
24,13:6
24,14:4
24,15:10
24,16:10
24,17:4
24,18:7
24,19:6
24,20:4
24,21:5
24,22:9
24,23:5
24,24:7
24,25:8
24,26:9
24,27:10
24,28:6
24,29:10
24,30:7
24,31:4
24,32:4
24,37:9
24,39:7
24,43:6
25,1:5
25,2:3
25,3:6
25,4:4
25,5:5
25,6:7
25,7:6
25,8:8
25,9:4
25,10:6
25,11:9
25,12:6
25,13:5
25,14:3
25,15:9
25,16:9
25,17:3
25,18:6
25,19:5
25,20:3
25,21:4
25,22:8
25,23:4
25,24:6
25,25:7
25,27:9
25,28:5
25,29:9
25,30:6
25,31:3
25,32:3
25,33:5
25,34:5
25,35:9
25,36:5
25,37:8
25,39:6
25,43:5
26,1:4
26,2:2
26,3:5
26,4:3
26,5:4
26,6:6
26,7:5
26,8:7
26,9:3
26,10:5
26,11:8
26,12:5
26,13:4
26,14:2
26,15:8
26,16:8
26,17:2
26,18:5
26,19:4
26,20:2
26,21:3
26,22:7
26,23:3
26,24:5
26,25:6
26,26:7
26,27:8
26,28:4
26,29:8
26,30:5
26,31:2
26,32:2
26,33:4
26,34:4
26,35:8
26,36:4
26,37:7
26,39:5
26,43:4
27,1:3
27,2:1
27,3:4
27,4:2
27,5:3
27,6:5
27,7:4
27,8:6
27,9:2
27,10:4
27,11:7
27,12:4
27,13:3
27,14:1
27,15:7
27,16:7
27,17:1
27,18:4
27,19:3
27,20:1
27,21:2
27,22:6
27,23:2
27,24:4
27,25:5
27,26:6
27,27:7
27,29:7
27,30:4
27,31:1
27,32:1
27,37:6
27,39:4
27,43:3
28,1:7
28,2:5
28,3:8
28,4:6
28,5:7
28,6:9
28,7:8
28,8:10
28,9:6
28,10:8
28,11:11
28,12:8
28,13:7
28,14:5
28,15:11
28,16:11
28,17:5
28,18:8
28,19:7
28,20:5
28,21:6
28,22:10
28,23:6
28,24:8
28,25:9
28,26:10
28,27:11
28,28:7
28,29:11
28,30:8
28,31:5
28,32:5
28,33:7
28,34:7
28,35:11
28,36:7
28,37:10
28,39:8
28,43:7
29,1:3
29,2:1
29,3:4
29,4:2
29,5:3
29,6:5
29,7:4
29,8:6
29,9:2
29,10:4
29,11:7
29,12:4
29,13:3
29,14:1
29,15:7
29,16:7
29,17:1
29,18:4
29,19:3
29,20:1
29,21:2
29,22:6
29,23:2
29,24:4
29,25:5
29,26:6
29,27:7
29,28:3
29,29:7
29,30:4
29,31:1
29,32:1
29,33:3
29,34:3
29,35:7
29,36:3
29,37:6
29,38:1
29,39:4
29,40:6
29,43:3
30,1:6
30,2:4
30,3:7
30,4:5
30,5:6
30,6:8
30,7:7
30,8:9
30,9:5
30,10:7
30,11:10
30,12:7
30,13:6
30,14:4
30,15:10
30,16:10
30,17:4
30,18:7
30,19:6
30,20:4
30,21:5
30,22:9
30,23:5
30,24:7
30,25:8
30,26:9
30,27:10
30,28:6
30,29:10
30,30:7
30,31:4
30,32:4
30,33:6
30,34:6
30,35:10
30,36:6
30,37:9
30,38:4
30,39:7
30,40:9
30,43:6
31,1:9
31,2:7
31,3:10
31,4:8
31,5:9
31,6:11
31,7:10
31,8:12
31,9:8
31,10:10
31,11:13
31,12:10
31,13:9
31,14:7
31,15:13
31,16:13
31,17:7
31,18:10
31,19:9
31,20:7
31,21:8
31,22:12
31,23:8
31,24:10
31,25:11
31,26:12
31,27:13
31,28:9
31,29:13
31,30:10
31,31:7
31,32:7
31,33:9
31,34:9
31,35:13
31,36:9
31,37:12
31,38:7
31,39:10
31,40:12
31,43:9
32,1:9
32,2:7
32,3:10
32,4:8
32,5:9
32,6:11
32,7:10
32,8:12
32,9:8
32,10:10
32,11:13
32,12:10
32,13:9
32,14:7
32,15:13
32,16:13
32,17:7
32,18:10
32,19:9
32,20:7
32,21:8
32,22:12
32,23:8
32,24:10
32,25:11
32,26:12
32,27:13
32,28:9
32,29:13
32,30:10
32,31:7
32,32:7
32,33:9
32,34:9
32,35:13
32,36:9
32,37:12
32,38:7
32,39:10
32,40:12
32,43:9
33,1:7
33,2:5
33,3:8
33,4:6
33,5:7
33,6:9
33,7:8
33,8:10
33,9:6
33,10:8
33,11:11
33,12:8
33,13:7
33,14:5
33,15:11
33,16:11
33,17:5
33,18:8
33,19:7
33,20:5
33,21:6
33,22:10
33,23:6
33,24:8
33,25:9
33,26:10
33,27:11
33,28:7
33,29:11
33,30:8
33,31:5
33,32:5
33,33:7
33,37:10
33,39:8
33,43:7
34,1:7
34,2:5
34,3:8
34,4:6
34,5:7
34,6:9
34,7:8
34,8:10
34,9:6
34,10:8
34,11:11
34,12:8
34,13:7
34,14:5
34,15:11
34,16:11
34,17:5
34,18:8
34,19:7
34,20:5
34,21:6
34,22:10
34,23:6
34,24:8
34,25:9
34,26:10
34,27:11
34,28:7
34,29:11
34,30:8
34,31:5
34,32:5
34,33:7
34,34:7
34,35:11
34,36:7
34,37:10
34,39:8
34,43:7
35,1:3
35,2:1
35,3:4
35,4:2
35,5:3
35,6:5
35,7:4
35,8:6
35,9:2
35,10:4
35,11:7
35,12:4
35,13:3
35,14:1
35,15:7
35,16:7
35,17:1
35,18:4
35,19:3
35,20:1
35,21:2
35,22:6
35,23:2
35,24:4
35,25:5
35,26:6
35,27:7
35,28:3
35,29:7
35,30:4
35,31:1
35,32:1
35,33:3
35,34:3
35,35:7
35,36:3
35,37:6
35,38:1
35,39:4
35,43:3
36,1:7
36,2:5
36,3:8
36,4:6
36,5:7
36,6:9
36,7:8
36,8:10
36,9:6
36,10:8
36,11:11
36,12:8
36,13:7
36,14:5
36,15:11
36,16:11
36,17:5
36,18:8
36,19:7
36,20:5
36,21:6
36,22:10
36,23:6
36,24:8
36,25:9
36,26:10
36,27:11
36,28:7
36,29:11
36,30:8
36,31:5
36,32:5
36,33:7
36,34:7
36,35:11
36,36:7
36,37:10
36,39:8
36,43:7
37,1:4
37,2:2
37,3:5
37,4:3
37,5:4
37,6:6
37,7:5
37,8:7
37,9:3
37,10:5
37,11:8
37,12:5
37,13:4
37,14:2
37,15:8
37,16:8
37,17:2
37,18:5
37,19:4
37,20:2
37,21:3
37,22:7
37,23:3
37,24:5
37,25:6
37,26:7
37,27:8
37,28:4
37,29:8
37,30:5
37,31:2
37,32:2
37,33:4
37,34:4
37,35:8
37,36:4
37,37:7
37,38:2
37,39:5
37,40:7
37,41:7
37,42:8
37,44:5
37,45:5
38,1:9
38,2:7
38,3:10
38,4:8
38,5:9
38,6:11
38,7:10
38,8:12
38,9:8
38,10:10
38,11:13
38,12:10
38,13:9
38,14:7
38,15:13
38,16:13
38,17:7
38,18:10
38,19:9
38,20:7
38,21:8
38,22:12
38,23:8
38,24:10
38,25:11
38,26:12
38,27:13
38,28:9
38,29:13
38,30:10
38,31:7
38,32:7
38,33:9
38,34:9
38,35:13
38,36:9
38,37:12
38,38:7
38,39:10
38,43:9
39,1:6
39,2:4
39,3:7
39,4:5
39,5:6
39,6:8
39,7:7
39,8:9
39,9:5
39,10:7
39,11:10
39,12:7
39,13:6
39,14:4
39,15:10
39,16:10
39,17:4
39,18:7
39,19:6
39,20:4
39,21:5
39,22:9
39,23:5
39,24:7
39,25:8
39,26:9
39,27:10
39,28:6
39,29:10
39,30:7
39,31:4
39,32:4
39,33:6
39,34:6
39,35:10
39,36:6
39,37:9
39,38:4
39,39:7
39,40:9
39,43:6
40,1:4
40,2:2
40,3:5
40,4:3
40,5:4
40,6:6
40,7:5
40,8:7
40,9:3
40,10:5
40,11:8
40,12:5
40,13:4
40,14:2
40,15:8
40,16:8
40,17:2
40,18:5
40,19:4
40,20:2
40,21:3
40,22:7
40,23:3
40,24:5
40,25:6
40,26:7
40,27:8
40,28:4
40,29:8
40,30:5
40,31:2
40,32:2
40,33:4
40,34:4
40,35:8
40,36:4
40,37:7
40,38:2
40,39:5
40,40:7
40,43:4
41,1:4
41,2:2
41,3:5
41,4:3
41,5:4
41,6:6
41,7:5
41,8:7
41,9:3
41,10:5
41,11:8
41,12:5
41,13:4
41,14:2
41,15:8
41,16:8
41,17:2
41,18:5
41,19:4
41,20:2
41,21:3
41,22:7
41,23:3
41,24:5
41,25:6
41,26:7
41,27:8
41,28:4
41,29:8
41,30:5
41,31:2
41,32:2
41,33:4
41,34:4
41,35:8
41,36:4
41,37:7
41,38:2
41,39:5
41,40:7
41,41:7
41,43:4
42,1:3
42,2:1
42,3:4
42,4:2
42,5:3
42,6:5
42,7:4
42,8:6
42,9:2
42,10:4
42,11:7
42,12:4
42,13:3
42,14:1
42,15:7
42,16:7
42,17:1
42,18:4
42,19:3
42,20:1
42,21:2
42,22:6
42,23:2
42,24:4
42,25:5
42,26:6
42,27:7
42,28:3
42,29:7
42,30:4
42,31:1
42,32:1
42,33:3
42,34:3
42,35:7
42,36:3
42,37:6
42,38:1
42,39:4
42,40:6
42,41:6
42,42:7
42,43:3
43,1:7
43,2:5
43,3:8
43,4:6
43,5:7
43,6:9
43,7:8
43,8:10
43,9:6
43,10:8
43,11:11
43,12:8
43,13:7
43,14:5
43,15:11
43,16:11
43,17:5
43,18:8
43,19:7
43,20:5
43,21:6
43,22:10
43,23:6
43,24:8
43,25:9
43,26:10
43,27:11
43,28:7
43,29:11
43,30:8
43,31:5
43,32:5
43,33:7
43,34:7
43,35:11
43,36:7
43,37:10
43,38:5
43,39:8
43,40:10
43,41:10
43,42:11
43,43:7
43,44:8
43,45:8
44,1:6
44,2:4
44,3:7
44,4:5
44,5:6
44,6:8
44,7:7
44,8:9
44,9:5
44,10:7
44,11:10
44,12:7
44,13:6
44,14:4
44,15:10
44,16:10
44,17:4
44,18:7
44,19:6
44,20:4
44,21:5
44,22:9
44,23:5
44,24:7
44,25:8
44,26:9
44,27:10
44,28:6
44,29:10
44,30:7
44,31:4
44,32:4
44,33:6
44,34:6
44,35:10
44,36:6
44,37:9
44,38:4
44,39:7
44,40:9
44,41:9
44,42:10
44,43:6
44,44:7
44,45:7
45,1:6
45,2:4
45,3:7
45,4:5
45,5:6
45,6:8
45,7:7
45,8:9
45,9:5
45,10:7
45,11:10
45,12:7
45,13:6
45,14:4
45,15:10
45,16:10
45,17:4
45,18:7
45,19:6
45,20:4
45,21:5
45,22:9
45,23:5
45,24:7
45,25:8
45,26:9
45,27:10
45,28:6
45,29:10
45,30:7
45,31:4
45,32:4
45,33:6
45,34:6
45,35:10
45,36:6
45,37:9
45,38:4
45,39:7
45,40:9
45,41:9
45,42:10
45,43:6
45,44:7
45,45:7

<end>

<optimal SALBP-1 value>
9


<rand seed>
467321153

<Lower Bounds>
Lm1=9
Lms1=9
Lm2=1
Lm3=4
Lm4=9
Best=9

<Optimal Stations (Iterations: 10)>
13
